99 100
72 50 1
86 57 1
58 52 2
55 79 1
72 56 1
77 79 1
64 63 1
51 56 1
84 74 1
80 61 1
82 87 1
11 97 1
44 69 1
74 22 1
80 95 1
44 44 1
70 61 1
53 68 1
62 56 1
91 96 1
57 79 1
56 76 1
55 80 1
100 59 1
7 9 1
71 96 1
11 16 1
70 85 1
67 100 1
97 77 1
77 62 1
3 23 1
93 3 1
85 70 1
55 70 1
96 71 1
25 77 1
35 26 1
96 91 1
51 82 1
80 43 1
46 42 1
98 73 1
68 54 1
78 81 1
79 20 1
11 77 1
98 88 1
98 30 1
53 59 1
86 71 1
88 84 1
28 94 1
100 61 1
73 88 1
93 42 1
80 14 1
71 25 1
21 17 1
68 11 1
75 98 1
77 99 1
81 57 1
79 91 1
41 44 1
58 86 1
3 72 1
66 83 1
68 51 1
67 34 1
37 23 1
65 87 1
57 71 1
7 96 1
87 48 1
76 52 1
9 67 1
23 76 1
88 85 1
98 80 1
71 95 1
50 98 1
7 89 1
32 79 1
95 99 1
91 93 1
37 44 1
77 69 1
87 16 1
92 99 1
29 15 1
84 82 1
78 93 1
54 67 1
82 99 1
52 55 1
88 82 1
79 97 1
97 94 1
100 100 
100 100 
100 100 
100 100 
100 100 
100 100 
100 100 
100 100 
100 100 
100 100 
100 100 
100 100 
100 100 
100 100 
100 100 
100 100 
100 100 
100 100 
100 100 
100 100 
100 100 
100 100 
100 100 
100 100 
100 100 
100 100 
100 100 
100 100 
100 100 
100 100 
100 100 
100 100 
100 100 
100 100 
100 100 
100 100 
100 100 
100 100 
100 100 
100 100 
100 100 
100 100 
100 100 
100 100 
100 100 
100 100 
100 100 
100 100 
100 100 
100 100 
100 100 
100 100 
100 100 
100 100 
100 100 
100 100 
100 100 
100 100 
100 100 
100 100 
100 100 
100 100 
100 100 
100 100 
100 100 
100 100 
100 100 
100 100 
100 100 
100 100 
100 100 
100 100 
100 100 
100 100 
100 100 
100 100 
100 100 
100 100 
100 100 
100 100 
100 100 
100 100 
100 100 
100 100 
100 100 
100 100 
100 100 
100 100 
100 100 
100 100 
100 100 
100 100 
100 100 
100 100 
100 100 
100 100 
100 100 
100 100 
100 100 
100 100 
